c generated by sgen3tocnf
c nLits = 612
c actual nVars = 97
c Command: sgen3tocnf 024 0 13 24 97 4 2 0 /dev/null
p cnf 97 204
-1 -41 -45 0
-1 -41 -93 0
-1 -45 -93 0
-41 -45 -93 0
-53 -65 -69 0
-53 -65 -81 0
-53 -69 -81 0
-65 -69 -81 0
-5 -54 -61 0
-5 -54 -73 0
-5 -61 -73 0
-54 -61 -73 0
-17 -29 -82 0
-17 -29 -94 0
-17 -82 -94 0
-29 -82 -94 0
-6 -42 -49 0
-6 -42 -85 0
-6 -49 -85 0
-42 -49 -85 0
-7 -37 -70 0
-7 -37 -89 0
-7 -70 -89 0
-37 -70 -89 0
-9 -30 -62 0
-9 -30 -86 0
-9 -62 -86 0
-30 -62 -86 0
-2 -25 -31 0
-2 -25 -77 0
-2 -31 -77 0
-25 -31 -77 0
-32 -33 -50 0
-32 -33 -90 0
-32 -50 -90 0
-33 -50 -90 0
-21 -63 -78 0
-21 -63 -83 0
-21 -78 -83 0
-63 -78 -83 0
-10 -18 -79 0
-10 -18 -91 0
-10 -79 -91 0
-18 -79 -91 0
-19 -34 -46 0
-19 -34 -74 0
-19 -46 -74 0
-34 -46 -74 0
-11 -57 -66 0
-11 -57 -75 0
-11 -66 -75 0
-57 -66 -75 0
-8 -22 -26 0
-8 -22 -58 0
-8 -26 -58 0
-22 -26 -58 0
-12 -13 -43 0
-12 -13 -84 0
-12 -43 -84 0
-13 -43 -84 0
-14 -47 -67 0
-14 -47 -92 0
-14 -67 -92 0
-47 -67 -92 0
-35 -44 -55 0
-35 -44 -80 0
-35 -55 -80 0
-44 -55 -80 0
-59 -71 -87 0
-59 -71 -95 0
-59 -87 -95 0
-71 -87 -95 0
-48 -51 -60 0
-48 -51 -64 0
-48 -60 -64 0
-51 -60 -64 0
-23 -38 -76 0
-23 -38 -88 0
-23 -76 -88 0
-38 -76 -88 0
-3 -15 -24 0
-3 -15 -52 0
-3 -24 -52 0
-15 -24 -52 0
-4 -36 -39 0
-4 -36 -68 0
-4 -39 -68 0
-36 -39 -68 0
-16 -20 -27 0
-16 -20 -72 0
-16 -27 -72 0
-20 -27 -72 0
-28 -40 -56 0
-28 -40 -96 0
-28 -40 -97 0
-28 -56 -96 0
-28 -56 -97 0
-28 -96 -97 0
-40 -56 -96 0
-40 -56 -97 0
-40 -96 -97 0
-56 -96 -97 0
1 2 3 0
1 2 4 0
1 3 4 0
2 3 4 0
5 6 7 0
5 6 8 0
5 7 8 0
6 7 8 0
9 10 11 0
9 10 12 0
9 11 12 0
10 11 12 0
13 14 15 0
13 14 16 0
13 15 16 0
14 15 16 0
17 18 19 0
17 18 20 0
17 19 20 0
18 19 20 0
21 22 23 0
21 22 24 0
21 23 24 0
22 23 24 0
25 26 27 0
25 26 28 0
25 27 28 0
26 27 28 0
29 30 31 0
29 30 32 0
29 31 32 0
30 31 32 0
33 34 35 0
33 34 36 0
33 35 36 0
34 35 36 0
37 38 39 0
37 38 40 0
37 39 40 0
38 39 40 0
41 42 43 0
41 42 44 0
41 43 44 0
42 43 44 0
45 46 47 0
45 46 48 0
45 47 48 0
46 47 48 0
49 50 51 0
49 50 52 0
49 50 97 0
49 51 52 0
49 51 97 0
49 52 97 0
50 51 52 0
50 51 97 0
50 52 97 0
51 52 97 0
53 54 55 0
53 54 56 0
53 55 56 0
54 55 56 0
57 58 59 0
57 58 60 0
57 59 60 0
58 59 60 0
61 62 63 0
61 62 64 0
61 63 64 0
62 63 64 0
65 66 67 0
65 66 68 0
65 67 68 0
66 67 68 0
69 70 71 0
69 70 72 0
69 71 72 0
70 71 72 0
73 74 75 0
73 74 76 0
73 75 76 0
74 75 76 0
77 78 79 0
77 78 80 0
77 79 80 0
78 79 80 0
81 82 83 0
81 82 84 0
81 83 84 0
82 83 84 0
85 86 87 0
85 86 88 0
85 87 88 0
86 87 88 0
89 90 91 0
89 90 92 0
89 91 92 0
90 91 92 0
93 94 95 0
93 94 96 0
93 95 96 0
94 95 96 0
